p cnf 96 2256
1 7 13 19 25 31 37 43 49 55 61 67 73 79 85 91 0
2 8 14 20 26 32 38 44 50 56 62 68 74 80 86 92 0
3 9 15 21 27 33 39 45 51 57 63 69 75 81 87 93 0
4 10 16 22 28 34 40 46 52 58 64 70 76 82 88 94 0
5 11 17 23 29 35 41 47 53 59 65 71 77 83 89 95 0
6 12 18 24 30 36 42 48 54 60 66 72 78 84 90 96 0
-1 -8 0
-1 -9 0
-1 -10 0
-1 -11 0
-1 -12 0
-2 -9 0
-2 -10 0
-2 -11 0
-2 -12 0
-3 -10 0
-3 -11 0
-3 -12 0
-4 -11 0
-4 -12 0
-5 -12 0
-1 -92 0
-1 -93 0
-1 -94 0
-1 -95 0
-1 -96 0
-2 -93 0
-2 -94 0
-2 -95 0
-2 -96 0
-3 -94 0
-3 -95 0
-3 -96 0
-4 -95 0
-4 -96 0
-5 -96 0
-7 -2 0
-7 -3 0
-7 -4 0
-7 -5 0
-7 -6 0
-8 -3 0
-8 -4 0
-8 -5 0
-8 -6 0
-9 -4 0
-9 -5 0
-9 -6 0
-10 -5 0
-10 -6 0
-11 -6 0
-7 -20 0
-7 -21 0
-7 -22 0
-7 -23 0
-7 -24 0
-8 -21 0
-8 -22 0
-8 -23 0
-8 -24 0
-9 -22 0
-9 -23 0
-9 -24 0
-10 -23 0
-10 -24 0
-11 -24 0
-7 -32 0
-7 -33 0
-7 -34 0
-7 -35 0
-7 -36 0
-8 -33 0
-8 -34 0
-8 -35 0
-8 -36 0
-9 -34 0
-9 -35 0
-9 -36 0
-10 -35 0
-10 -36 0
-11 -36 0
-7 -44 0
-7 -45 0
-7 -46 0
-7 -47 0
-7 -48 0
-8 -45 0
-8 -46 0
-8 -47 0
-8 -48 0
-9 -46 0
-9 -47 0
-9 -48 0
-10 -47 0
-10 -48 0
-11 -48 0
-7 -68 0
-7 -69 0
-7 -70 0
-7 -71 0
-7 -72 0
-8 -69 0
-8 -70 0
-8 -71 0
-8 -72 0
-9 -70 0
-9 -71 0
-9 -72 0
-10 -71 0
-10 -72 0
-11 -72 0
-7 -80 0
-7 -81 0
-7 -82 0
-7 -83 0
-7 -84 0
-8 -81 0
-8 -82 0
-8 -83 0
-8 -84 0
-9 -82 0
-9 -83 0
-9 -84 0
-10 -83 0
-10 -84 0
-11 -84 0
-7 -86 0
-7 -87 0
-7 -88 0
-7 -89 0
-7 -90 0
-8 -87 0
-8 -88 0
-8 -89 0
-8 -90 0
-9 -88 0
-9 -89 0
-9 -90 0
-10 -89 0
-10 -90 0
-11 -90 0
-13 -50 0
-13 -51 0
-13 -52 0
-13 -53 0
-13 -54 0
-14 -51 0
-14 -52 0
-14 -53 0
-14 -54 0
-15 -52 0
-15 -53 0
-15 -54 0
-16 -53 0
-16 -54 0
-17 -54 0
-19 -8 0
-19 -9 0
-19 -10 0
-19 -11 0
-19 -12 0
-20 -9 0
-20 -10 0
-20 -11 0
-20 -12 0
-21 -10 0
-21 -11 0
-21 -12 0
-22 -11 0
-22 -12 0
-23 -12 0
-19 -44 0
-19 -45 0
-19 -46 0
-19 -47 0
-19 -48 0
-20 -45 0
-20 -46 0
-20 -47 0
-20 -48 0
-21 -46 0
-21 -47 0
-21 -48 0
-22 -47 0
-22 -48 0
-23 -48 0
-19 -62 0
-19 -63 0
-19 -64 0
-19 -65 0
-19 -66 0
-20 -63 0
-20 -64 0
-20 -65 0
-20 -66 0
-21 -64 0
-21 -65 0
-21 -66 0
-22 -65 0
-22 -66 0
-23 -66 0
-19 -68 0
-19 -69 0
-19 -70 0
-19 -71 0
-19 -72 0
-20 -69 0
-20 -70 0
-20 -71 0
-20 -72 0
-21 -70 0
-21 -71 0
-21 -72 0
-22 -71 0
-22 -72 0
-23 -72 0
-19 -86 0
-19 -87 0
-19 -88 0
-19 -89 0
-19 -90 0
-20 -87 0
-20 -88 0
-20 -89 0
-20 -90 0
-21 -88 0
-21 -89 0
-21 -90 0
-22 -89 0
-22 -90 0
-23 -90 0
-19 -92 0
-19 -93 0
-19 -94 0
-19 -95 0
-19 -96 0
-20 -93 0
-20 -94 0
-20 -95 0
-20 -96 0
-21 -94 0
-21 -95 0
-21 -96 0
-22 -95 0
-22 -96 0
-23 -96 0
-25 -44 0
-25 -45 0
-25 -46 0
-25 -47 0
-25 -48 0
-26 -45 0
-26 -46 0
-26 -47 0
-26 -48 0
-27 -46 0
-27 -47 0
-27 -48 0
-28 -47 0
-28 -48 0
-29 -48 0
-25 -50 0
-25 -51 0
-25 -52 0
-25 -53 0
-25 -54 0
-26 -51 0
-26 -52 0
-26 -53 0
-26 -54 0
-27 -52 0
-27 -53 0
-27 -54 0
-28 -53 0
-28 -54 0
-29 -54 0
-25 -56 0
-25 -57 0
-25 -58 0
-25 -59 0
-25 -60 0
-26 -57 0
-26 -58 0
-26 -59 0
-26 -60 0
-27 -58 0
-27 -59 0
-27 -60 0
-28 -59 0
-28 -60 0
-29 -60 0
-25 -62 0
-25 -63 0
-25 -64 0
-25 -65 0
-25 -66 0
-26 -63 0
-26 -64 0
-26 -65 0
-26 -66 0
-27 -64 0
-27 -65 0
-27 -66 0
-28 -65 0
-28 -66 0
-29 -66 0
-25 -68 0
-25 -69 0
-25 -70 0
-25 -71 0
-25 -72 0
-26 -69 0
-26 -70 0
-26 -71 0
-26 -72 0
-27 -70 0
-27 -71 0
-27 -72 0
-28 -71 0
-28 -72 0
-29 -72 0
-25 -80 0
-25 -81 0
-25 -82 0
-25 -83 0
-25 -84 0
-26 -81 0
-26 -82 0
-26 -83 0
-26 -84 0
-27 -82 0
-27 -83 0
-27 -84 0
-28 -83 0
-28 -84 0
-29 -84 0
-25 -86 0
-25 -87 0
-25 -88 0
-25 -89 0
-25 -90 0
-26 -87 0
-26 -88 0
-26 -89 0
-26 -90 0
-27 -88 0
-27 -89 0
-27 -90 0
-28 -89 0
-28 -90 0
-29 -90 0
-25 -92 0
-25 -93 0
-25 -94 0
-25 -95 0
-25 -96 0
-26 -93 0
-26 -94 0
-26 -95 0
-26 -96 0
-27 -94 0
-27 -95 0
-27 -96 0
-28 -95 0
-28 -96 0
-29 -96 0
-31 -8 0
-31 -9 0
-31 -10 0
-31 -11 0
-31 -12 0
-32 -9 0
-32 -10 0
-32 -11 0
-32 -12 0
-33 -10 0
-33 -11 0
-33 -12 0
-34 -11 0
-34 -12 0
-35 -12 0
-31 -38 0
-31 -39 0
-31 -40 0
-31 -41 0
-31 -42 0
-32 -39 0
-32 -40 0
-32 -41 0
-32 -42 0
-33 -40 0
-33 -41 0
-33 -42 0
-34 -41 0
-34 -42 0
-35 -42 0
-31 -56 0
-31 -57 0
-31 -58 0
-31 -59 0
-31 -60 0
-32 -57 0
-32 -58 0
-32 -59 0
-32 -60 0
-33 -58 0
-33 -59 0
-33 -60 0
-34 -59 0
-34 -60 0
-35 -60 0
-31 -86 0
-31 -87 0
-31 -88 0
-31 -89 0
-31 -90 0
-32 -87 0
-32 -88 0
-32 -89 0
-32 -90 0
-33 -88 0
-33 -89 0
-33 -90 0
-34 -89 0
-34 -90 0
-35 -90 0
-37 -32 0
-37 -33 0
-37 -34 0
-37 -35 0
-37 -36 0
-38 -33 0
-38 -34 0
-38 -35 0
-38 -36 0
-39 -34 0
-39 -35 0
-39 -36 0
-40 -35 0
-40 -36 0
-41 -36 0
-37 -68 0
-37 -69 0
-37 -70 0
-37 -71 0
-37 -72 0
-38 -69 0
-38 -70 0
-38 -71 0
-38 -72 0
-39 -70 0
-39 -71 0
-39 -72 0
-40 -71 0
-40 -72 0
-41 -72 0
-37 -74 0
-37 -75 0
-37 -76 0
-37 -77 0
-37 -78 0
-38 -75 0
-38 -76 0
-38 -77 0
-38 -78 0
-39 -76 0
-39 -77 0
-39 -78 0
-40 -77 0
-40 -78 0
-41 -78 0
-37 -86 0
-37 -87 0
-37 -88 0
-37 -89 0
-37 -90 0
-38 -87 0
-38 -88 0
-38 -89 0
-38 -90 0
-39 -88 0
-39 -89 0
-39 -90 0
-40 -89 0
-40 -90 0
-41 -90 0
-43 -8 0
-43 -9 0
-43 -10 0
-43 -11 0
-43 -12 0
-44 -9 0
-44 -10 0
-44 -11 0
-44 -12 0
-45 -10 0
-45 -11 0
-45 -12 0
-46 -11 0
-46 -12 0
-47 -12 0
-43 -20 0
-43 -21 0
-43 -22 0
-43 -23 0
-43 -24 0
-44 -21 0
-44 -22 0
-44 -23 0
-44 -24 0
-45 -22 0
-45 -23 0
-45 -24 0
-46 -23 0
-46 -24 0
-47 -24 0
-43 -26 0
-43 -27 0
-43 -28 0
-43 -29 0
-43 -30 0
-44 -27 0
-44 -28 0
-44 -29 0
-44 -30 0
-45 -28 0
-45 -29 0
-45 -30 0
-46 -29 0
-46 -30 0
-47 -30 0
-43 -80 0
-43 -81 0
-43 -82 0
-43 -83 0
-43 -84 0
-44 -81 0
-44 -82 0
-44 -83 0
-44 -84 0
-45 -82 0
-45 -83 0
-45 -84 0
-46 -83 0
-46 -84 0
-47 -84 0
-43 -86 0
-43 -87 0
-43 -88 0
-43 -89 0
-43 -90 0
-44 -87 0
-44 -88 0
-44 -89 0
-44 -90 0
-45 -88 0
-45 -89 0
-45 -90 0
-46 -89 0
-46 -90 0
-47 -90 0
-49 -14 0
-49 -15 0
-49 -16 0
-49 -17 0
-49 -18 0
-50 -15 0
-50 -16 0
-50 -17 0
-50 -18 0
-51 -16 0
-51 -17 0
-51 -18 0
-52 -17 0
-52 -18 0
-53 -18 0
-49 -26 0
-49 -27 0
-49 -28 0
-49 -29 0
-49 -30 0
-50 -27 0
-50 -28 0
-50 -29 0
-50 -30 0
-51 -28 0
-51 -29 0
-51 -30 0
-52 -29 0
-52 -30 0
-53 -30 0
-49 -68 0
-49 -69 0
-49 -70 0
-49 -71 0
-49 -72 0
-50 -69 0
-50 -70 0
-50 -71 0
-50 -72 0
-51 -70 0
-51 -71 0
-51 -72 0
-52 -71 0
-52 -72 0
-53 -72 0
-49 -74 0
-49 -75 0
-49 -76 0
-49 -77 0
-49 -78 0
-50 -75 0
-50 -76 0
-50 -77 0
-50 -78 0
-51 -76 0
-51 -77 0
-51 -78 0
-52 -77 0
-52 -78 0
-53 -78 0
-49 -86 0
-49 -87 0
-49 -88 0
-49 -89 0
-49 -90 0
-50 -87 0
-50 -88 0
-50 -89 0
-50 -90 0
-51 -88 0
-51 -89 0
-51 -90 0
-52 -89 0
-52 -90 0
-53 -90 0
-49 -92 0
-49 -93 0
-49 -94 0
-49 -95 0
-49 -96 0
-50 -93 0
-50 -94 0
-50 -95 0
-50 -96 0
-51 -94 0
-51 -95 0
-51 -96 0
-52 -95 0
-52 -96 0
-53 -96 0
-55 -26 0
-55 -27 0
-55 -28 0
-55 -29 0
-55 -30 0
-56 -27 0
-56 -28 0
-56 -29 0
-56 -30 0
-57 -28 0
-57 -29 0
-57 -30 0
-58 -29 0
-58 -30 0
-59 -30 0
-55 -32 0
-55 -33 0
-55 -34 0
-55 -35 0
-55 -36 0
-56 -33 0
-56 -34 0
-56 -35 0
-56 -36 0
-57 -34 0
-57 -35 0
-57 -36 0
-58 -35 0
-58 -36 0
-59 -36 0
-55 -74 0
-55 -75 0
-55 -76 0
-55 -77 0
-55 -78 0
-56 -75 0
-56 -76 0
-56 -77 0
-56 -78 0
-57 -76 0
-57 -77 0
-57 -78 0
-58 -77 0
-58 -78 0
-59 -78 0
-55 -80 0
-55 -81 0
-55 -82 0
-55 -83 0
-55 -84 0
-56 -81 0
-56 -82 0
-56 -83 0
-56 -84 0
-57 -82 0
-57 -83 0
-57 -84 0
-58 -83 0
-58 -84 0
-59 -84 0
-61 -20 0
-61 -21 0
-61 -22 0
-61 -23 0
-61 -24 0
-62 -21 0
-62 -22 0
-62 -23 0
-62 -24 0
-63 -22 0
-63 -23 0
-63 -24 0
-64 -23 0
-64 -24 0
-65 -24 0
-61 -26 0
-61 -27 0
-61 -28 0
-61 -29 0
-61 -30 0
-62 -27 0
-62 -28 0
-62 -29 0
-62 -30 0
-63 -28 0
-63 -29 0
-63 -30 0
-64 -29 0
-64 -30 0
-65 -30 0
-61 -74 0
-61 -75 0
-61 -76 0
-61 -77 0
-61 -78 0
-62 -75 0
-62 -76 0
-62 -77 0
-62 -78 0
-63 -76 0
-63 -77 0
-63 -78 0
-64 -77 0
-64 -78 0
-65 -78 0
-61 -80 0
-61 -81 0
-61 -82 0
-61 -83 0
-61 -84 0
-62 -81 0
-62 -82 0
-62 -83 0
-62 -84 0
-63 -82 0
-63 -83 0
-63 -84 0
-64 -83 0
-64 -84 0
-65 -84 0
-67 -8 0
-67 -9 0
-67 -10 0
-67 -11 0
-67 -12 0
-68 -9 0
-68 -10 0
-68 -11 0
-68 -12 0
-69 -10 0
-69 -11 0
-69 -12 0
-70 -11 0
-70 -12 0
-71 -12 0
-67 -20 0
-67 -21 0
-67 -22 0
-67 -23 0
-67 -24 0
-68 -21 0
-68 -22 0
-68 -23 0
-68 -24 0
-69 -22 0
-69 -23 0
-69 -24 0
-70 -23 0
-70 -24 0
-71 -24 0
-67 -26 0
-67 -27 0
-67 -28 0
-67 -29 0
-67 -30 0
-68 -27 0
-68 -28 0
-68 -29 0
-68 -30 0
-69 -28 0
-69 -29 0
-69 -30 0
-70 -29 0
-70 -30 0
-71 -30 0
-67 -38 0
-67 -39 0
-67 -40 0
-67 -41 0
-67 -42 0
-68 -39 0
-68 -40 0
-68 -41 0
-68 -42 0
-69 -40 0
-69 -41 0
-69 -42 0
-70 -41 0
-70 -42 0
-71 -42 0
-67 -50 0
-67 -51 0
-67 -52 0
-67 -53 0
-67 -54 0
-68 -51 0
-68 -52 0
-68 -53 0
-68 -54 0
-69 -52 0
-69 -53 0
-69 -54 0
-70 -53 0
-70 -54 0
-71 -54 0
-67 -74 0
-67 -75 0
-67 -76 0
-67 -77 0
-67 -78 0
-68 -75 0
-68 -76 0
-68 -77 0
-68 -78 0
-69 -76 0
-69 -77 0
-69 -78 0
-70 -77 0
-70 -78 0
-71 -78 0
-67 -86 0
-67 -87 0
-67 -88 0
-67 -89 0
-67 -90 0
-68 -87 0
-68 -88 0
-68 -89 0
-68 -90 0
-69 -88 0
-69 -89 0
-69 -90 0
-70 -89 0
-70 -90 0
-71 -90 0
-73 -38 0
-73 -39 0
-73 -40 0
-73 -41 0
-73 -42 0
-74 -39 0
-74 -40 0
-74 -41 0
-74 -42 0
-75 -40 0
-75 -41 0
-75 -42 0
-76 -41 0
-76 -42 0
-77 -42 0
-73 -50 0
-73 -51 0
-73 -52 0
-73 -53 0
-73 -54 0
-74 -51 0
-74 -52 0
-74 -53 0
-74 -54 0
-75 -52 0
-75 -53 0
-75 -54 0
-76 -53 0
-76 -54 0
-77 -54 0
-73 -56 0
-73 -57 0
-73 -58 0
-73 -59 0
-73 -60 0
-74 -57 0
-74 -58 0
-74 -59 0
-74 -60 0
-75 -58 0
-75 -59 0
-75 -60 0
-76 -59 0
-76 -60 0
-77 -60 0
-73 -62 0
-73 -63 0
-73 -64 0
-73 -65 0
-73 -66 0
-74 -63 0
-74 -64 0
-74 -65 0
-74 -66 0
-75 -64 0
-75 -65 0
-75 -66 0
-76 -65 0
-76 -66 0
-77 -66 0
-73 -68 0
-73 -69 0
-73 -70 0
-73 -71 0
-73 -72 0
-74 -69 0
-74 -70 0
-74 -71 0
-74 -72 0
-75 -70 0
-75 -71 0
-75 -72 0
-76 -71 0
-76 -72 0
-77 -72 0
-73 -80 0
-73 -81 0
-73 -82 0
-73 -83 0
-73 -84 0
-74 -81 0
-74 -82 0
-74 -83 0
-74 -84 0
-75 -82 0
-75 -83 0
-75 -84 0
-76 -83 0
-76 -84 0
-77 -84 0
-73 -86 0
-73 -87 0
-73 -88 0
-73 -89 0
-73 -90 0
-74 -87 0
-74 -88 0
-74 -89 0
-74 -90 0
-75 -88 0
-75 -89 0
-75 -90 0
-76 -89 0
-76 -90 0
-77 -90 0
-73 -92 0
-73 -93 0
-73 -94 0
-73 -95 0
-73 -96 0
-74 -93 0
-74 -94 0
-74 -95 0
-74 -96 0
-75 -94 0
-75 -95 0
-75 -96 0
-76 -95 0
-76 -96 0
-77 -96 0
-79 -8 0
-79 -9 0
-79 -10 0
-79 -11 0
-79 -12 0
-80 -9 0
-80 -10 0
-80 -11 0
-80 -12 0
-81 -10 0
-81 -11 0
-81 -12 0
-82 -11 0
-82 -12 0
-83 -12 0
-79 -26 0
-79 -27 0
-79 -28 0
-79 -29 0
-79 -30 0
-80 -27 0
-80 -28 0
-80 -29 0
-80 -30 0
-81 -28 0
-81 -29 0
-81 -30 0
-82 -29 0
-82 -30 0
-83 -30 0
-79 -44 0
-79 -45 0
-79 -46 0
-79 -47 0
-79 -48 0
-80 -45 0
-80 -46 0
-80 -47 0
-80 -48 0
-81 -46 0
-81 -47 0
-81 -48 0
-82 -47 0
-82 -48 0
-83 -48 0
-79 -56 0
-79 -57 0
-79 -58 0
-79 -59 0
-79 -60 0
-80 -57 0
-80 -58 0
-80 -59 0
-80 -60 0
-81 -58 0
-81 -59 0
-81 -60 0
-82 -59 0
-82 -60 0
-83 -60 0
-79 -62 0
-79 -63 0
-79 -64 0
-79 -65 0
-79 -66 0
-80 -63 0
-80 -64 0
-80 -65 0
-80 -66 0
-81 -64 0
-81 -65 0
-81 -66 0
-82 -65 0
-82 -66 0
-83 -66 0
-79 -74 0
-79 -75 0
-79 -76 0
-79 -77 0
-79 -78 0
-80 -75 0
-80 -76 0
-80 -77 0
-80 -78 0
-81 -76 0
-81 -77 0
-81 -78 0
-82 -77 0
-82 -78 0
-83 -78 0
-85 -8 0
-85 -9 0
-85 -10 0
-85 -11 0
-85 -12 0
-86 -9 0
-86 -10 0
-86 -11 0
-86 -12 0
-87 -10 0
-87 -11 0
-87 -12 0
-88 -11 0
-88 -12 0
-89 -12 0
-85 -20 0
-85 -21 0
-85 -22 0
-85 -23 0
-85 -24 0
-86 -21 0
-86 -22 0
-86 -23 0
-86 -24 0
-87 -22 0
-87 -23 0
-87 -24 0
-88 -23 0
-88 -24 0
-89 -24 0
-85 -26 0
-85 -27 0
-85 -28 0
-85 -29 0
-85 -30 0
-86 -27 0
-86 -28 0
-86 -29 0
-86 -30 0
-87 -28 0
-87 -29 0
-87 -30 0
-88 -29 0
-88 -30 0
-89 -30 0
-85 -32 0
-85 -33 0
-85 -34 0
-85 -35 0
-85 -36 0
-86 -33 0
-86 -34 0
-86 -35 0
-86 -36 0
-87 -34 0
-87 -35 0
-87 -36 0
-88 -35 0
-88 -36 0
-89 -36 0
-85 -38 0
-85 -39 0
-85 -40 0
-85 -41 0
-85 -42 0
-86 -39 0
-86 -40 0
-86 -41 0
-86 -42 0
-87 -40 0
-87 -41 0
-87 -42 0
-88 -41 0
-88 -42 0
-89 -42 0
-85 -44 0
-85 -45 0
-85 -46 0
-85 -47 0
-85 -48 0
-86 -45 0
-86 -46 0
-86 -47 0
-86 -48 0
-87 -46 0
-87 -47 0
-87 -48 0
-88 -47 0
-88 -48 0
-89 -48 0
-85 -50 0
-85 -51 0
-85 -52 0
-85 -53 0
-85 -54 0
-86 -51 0
-86 -52 0
-86 -53 0
-86 -54 0
-87 -52 0
-87 -53 0
-87 -54 0
-88 -53 0
-88 -54 0
-89 -54 0
-85 -68 0
-85 -69 0
-85 -70 0
-85 -71 0
-85 -72 0
-86 -69 0
-86 -70 0
-86 -71 0
-86 -72 0
-87 -70 0
-87 -71 0
-87 -72 0
-88 -71 0
-88 -72 0
-89 -72 0
-85 -74 0
-85 -75 0
-85 -76 0
-85 -77 0
-85 -78 0
-86 -75 0
-86 -76 0
-86 -77 0
-86 -78 0
-87 -76 0
-87 -77 0
-87 -78 0
-88 -77 0
-88 -78 0
-89 -78 0
-91 -2 0
-91 -3 0
-91 -4 0
-91 -5 0
-91 -6 0
-92 -3 0
-92 -4 0
-92 -5 0
-92 -6 0
-93 -4 0
-93 -5 0
-93 -6 0
-94 -5 0
-94 -6 0
-95 -6 0
-91 -20 0
-91 -21 0
-91 -22 0
-91 -23 0
-91 -24 0
-92 -21 0
-92 -22 0
-92 -23 0
-92 -24 0
-93 -22 0
-93 -23 0
-93 -24 0
-94 -23 0
-94 -24 0
-95 -24 0
-91 -26 0
-91 -27 0
-91 -28 0
-91 -29 0
-91 -30 0
-92 -27 0
-92 -28 0
-92 -29 0
-92 -30 0
-93 -28 0
-93 -29 0
-93 -30 0
-94 -29 0
-94 -30 0
-95 -30 0
-91 -50 0
-91 -51 0
-91 -52 0
-91 -53 0
-91 -54 0
-92 -51 0
-92 -52 0
-92 -53 0
-92 -54 0
-93 -52 0
-93 -53 0
-93 -54 0
-94 -53 0
-94 -54 0
-95 -54 0
-91 -74 0
-91 -75 0
-91 -76 0
-91 -77 0
-91 -78 0
-92 -75 0
-92 -76 0
-92 -77 0
-92 -78 0
-93 -76 0
-93 -77 0
-93 -78 0
-94 -77 0
-94 -78 0
-95 -78 0
-1 -2 0
-7 -8 0
-13 -14 0
-19 -20 0
-25 -26 0
-31 -32 0
-37 -38 0
-43 -44 0
-49 -50 0
-55 -56 0
-61 -62 0
-67 -68 0
-73 -74 0
-79 -80 0
-85 -86 0
-91 -92 0
-1 -3 0
-7 -9 0
-13 -15 0
-19 -21 0
-25 -27 0
-31 -33 0
-37 -39 0
-43 -45 0
-49 -51 0
-55 -57 0
-61 -63 0
-67 -69 0
-73 -75 0
-79 -81 0
-85 -87 0
-91 -93 0
-1 -4 0
-7 -10 0
-13 -16 0
-19 -22 0
-25 -28 0
-31 -34 0
-37 -40 0
-43 -46 0
-49 -52 0
-55 -58 0
-61 -64 0
-67 -70 0
-73 -76 0
-79 -82 0
-85 -88 0
-91 -94 0
-1 -5 0
-7 -11 0
-13 -17 0
-19 -23 0
-25 -29 0
-31 -35 0
-37 -41 0
-43 -47 0
-49 -53 0
-55 -59 0
-61 -65 0
-67 -71 0
-73 -77 0
-79 -83 0
-85 -89 0
-91 -95 0
-1 -6 0
-7 -12 0
-13 -18 0
-19 -24 0
-25 -30 0
-31 -36 0
-37 -42 0
-43 -48 0
-49 -54 0
-55 -60 0
-61 -66 0
-67 -72 0
-73 -78 0
-79 -84 0
-85 -90 0
-91 -96 0
-2 -3 0
-8 -9 0
-14 -15 0
-20 -21 0
-26 -27 0
-32 -33 0
-38 -39 0
-44 -45 0
-50 -51 0
-56 -57 0
-62 -63 0
-68 -69 0
-74 -75 0
-80 -81 0
-86 -87 0
-92 -93 0
-2 -4 0
-8 -10 0
-14 -16 0
-20 -22 0
-26 -28 0
-32 -34 0
-38 -40 0
-44 -46 0
-50 -52 0
-56 -58 0
-62 -64 0
-68 -70 0
-74 -76 0
-80 -82 0
-86 -88 0
-92 -94 0
-2 -5 0
-8 -11 0
-14 -17 0
-20 -23 0
-26 -29 0
-32 -35 0
-38 -41 0
-44 -47 0
-50 -53 0
-56 -59 0
-62 -65 0
-68 -71 0
-74 -77 0
-80 -83 0
-86 -89 0
-92 -95 0
-2 -6 0
-8 -12 0
-14 -18 0
-20 -24 0
-26 -30 0
-32 -36 0
-38 -42 0
-44 -48 0
-50 -54 0
-56 -60 0
-62 -66 0
-68 -72 0
-74 -78 0
-80 -84 0
-86 -90 0
-92 -96 0
-3 -4 0
-9 -10 0
-15 -16 0
-21 -22 0
-27 -28 0
-33 -34 0
-39 -40 0
-45 -46 0
-51 -52 0
-57 -58 0
-63 -64 0
-69 -70 0
-75 -76 0
-81 -82 0
-87 -88 0
-93 -94 0
-3 -5 0
-9 -11 0
-15 -17 0
-21 -23 0
-27 -29 0
-33 -35 0
-39 -41 0
-45 -47 0
-51 -53 0
-57 -59 0
-63 -65 0
-69 -71 0
-75 -77 0
-81 -83 0
-87 -89 0
-93 -95 0
-3 -6 0
-9 -12 0
-15 -18 0
-21 -24 0
-27 -30 0
-33 -36 0
-39 -42 0
-45 -48 0
-51 -54 0
-57 -60 0
-63 -66 0
-69 -72 0
-75 -78 0
-81 -84 0
-87 -90 0
-93 -96 0
-4 -5 0
-10 -11 0
-16 -17 0
-22 -23 0
-28 -29 0
-34 -35 0
-40 -41 0
-46 -47 0
-52 -53 0
-58 -59 0
-64 -65 0
-70 -71 0
-76 -77 0
-82 -83 0
-88 -89 0
-94 -95 0
-4 -6 0
-10 -12 0
-16 -18 0
-22 -24 0
-28 -30 0
-34 -36 0
-40 -42 0
-46 -48 0
-52 -54 0
-58 -60 0
-64 -66 0
-70 -72 0
-76 -78 0
-82 -84 0
-88 -90 0
-94 -96 0
-5 -6 0
-11 -12 0
-17 -18 0
-23 -24 0
-29 -30 0
-35 -36 0
-41 -42 0
-47 -48 0
-53 -54 0
-59 -60 0
-65 -66 0
-71 -72 0
-77 -78 0
-83 -84 0
-89 -90 0
-95 -96 0
-1 -7 0
-1 -13 0
-1 -19 0
-1 -25 0
-1 -31 0
-1 -37 0
-1 -43 0
-1 -49 0
-1 -55 0
-1 -61 0
-1 -67 0
-1 -73 0
-1 -79 0
-1 -85 0
-1 -91 0
-7 -13 0
-7 -19 0
-7 -25 0
-7 -31 0
-7 -37 0
-7 -43 0
-7 -49 0
-7 -55 0
-7 -61 0
-7 -67 0
-7 -73 0
-7 -79 0
-7 -85 0
-7 -91 0
-13 -19 0
-13 -25 0
-13 -31 0
-13 -37 0
-13 -43 0
-13 -49 0
-13 -55 0
-13 -61 0
-13 -67 0
-13 -73 0
-13 -79 0
-13 -85 0
-13 -91 0
-19 -25 0
-19 -31 0
-19 -37 0
-19 -43 0
-19 -49 0
-19 -55 0
-19 -61 0
-19 -67 0
-19 -73 0
-19 -79 0
-19 -85 0
-19 -91 0
-25 -31 0
-25 -37 0
-25 -43 0
-25 -49 0
-25 -55 0
-25 -61 0
-25 -67 0
-25 -73 0
-25 -79 0
-25 -85 0
-25 -91 0
-31 -37 0
-31 -43 0
-31 -49 0
-31 -55 0
-31 -61 0
-31 -67 0
-31 -73 0
-31 -79 0
-31 -85 0
-31 -91 0
-37 -43 0
-37 -49 0
-37 -55 0
-37 -61 0
-37 -67 0
-37 -73 0
-37 -79 0
-37 -85 0
-37 -91 0
-43 -49 0
-43 -55 0
-43 -61 0
-43 -67 0
-43 -73 0
-43 -79 0
-43 -85 0
-43 -91 0
-49 -55 0
-49 -61 0
-49 -67 0
-49 -73 0
-49 -79 0
-49 -85 0
-49 -91 0
-55 -61 0
-55 -67 0
-55 -73 0
-55 -79 0
-55 -85 0
-55 -91 0
-61 -67 0
-61 -73 0
-61 -79 0
-61 -85 0
-61 -91 0
-67 -73 0
-67 -79 0
-67 -85 0
-67 -91 0
-73 -79 0
-73 -85 0
-73 -91 0
-79 -85 0
-79 -91 0
-85 -91 0
-2 -8 0
-2 -14 0
-2 -20 0
-2 -26 0
-2 -32 0
-2 -38 0
-2 -44 0
-2 -50 0
-2 -56 0
-2 -62 0
-2 -68 0
-2 -74 0
-2 -80 0
-2 -86 0
-2 -92 0
-8 -14 0
-8 -20 0
-8 -26 0
-8 -32 0
-8 -38 0
-8 -44 0
-8 -50 0
-8 -56 0
-8 -62 0
-8 -68 0
-8 -74 0
-8 -80 0
-8 -86 0
-8 -92 0
-14 -20 0
-14 -26 0
-14 -32 0
-14 -38 0
-14 -44 0
-14 -50 0
-14 -56 0
-14 -62 0
-14 -68 0
-14 -74 0
-14 -80 0
-14 -86 0
-14 -92 0
-20 -26 0
-20 -32 0
-20 -38 0
-20 -44 0
-20 -50 0
-20 -56 0
-20 -62 0
-20 -68 0
-20 -74 0
-20 -80 0
-20 -86 0
-20 -92 0
-26 -32 0
-26 -38 0
-26 -44 0
-26 -50 0
-26 -56 0
-26 -62 0
-26 -68 0
-26 -74 0
-26 -80 0
-26 -86 0
-26 -92 0
-32 -38 0
-32 -44 0
-32 -50 0
-32 -56 0
-32 -62 0
-32 -68 0
-32 -74 0
-32 -80 0
-32 -86 0
-32 -92 0
-38 -44 0
-38 -50 0
-38 -56 0
-38 -62 0
-38 -68 0
-38 -74 0
-38 -80 0
-38 -86 0
-38 -92 0
-44 -50 0
-44 -56 0
-44 -62 0
-44 -68 0
-44 -74 0
-44 -80 0
-44 -86 0
-44 -92 0
-50 -56 0
-50 -62 0
-50 -68 0
-50 -74 0
-50 -80 0
-50 -86 0
-50 -92 0
-56 -62 0
-56 -68 0
-56 -74 0
-56 -80 0
-56 -86 0
-56 -92 0
-62 -68 0
-62 -74 0
-62 -80 0
-62 -86 0
-62 -92 0
-68 -74 0
-68 -80 0
-68 -86 0
-68 -92 0
-74 -80 0
-74 -86 0
-74 -92 0
-80 -86 0
-80 -92 0
-86 -92 0
-3 -9 0
-3 -15 0
-3 -21 0
-3 -27 0
-3 -33 0
-3 -39 0
-3 -45 0
-3 -51 0
-3 -57 0
-3 -63 0
-3 -69 0
-3 -75 0
-3 -81 0
-3 -87 0
-3 -93 0
-9 -15 0
-9 -21 0
-9 -27 0
-9 -33 0
-9 -39 0
-9 -45 0
-9 -51 0
-9 -57 0
-9 -63 0
-9 -69 0
-9 -75 0
-9 -81 0
-9 -87 0
-9 -93 0
-15 -21 0
-15 -27 0
-15 -33 0
-15 -39 0
-15 -45 0
-15 -51 0
-15 -57 0
-15 -63 0
-15 -69 0
-15 -75 0
-15 -81 0
-15 -87 0
-15 -93 0
-21 -27 0
-21 -33 0
-21 -39 0
-21 -45 0
-21 -51 0
-21 -57 0
-21 -63 0
-21 -69 0
-21 -75 0
-21 -81 0
-21 -87 0
-21 -93 0
-27 -33 0
-27 -39 0
-27 -45 0
-27 -51 0
-27 -57 0
-27 -63 0
-27 -69 0
-27 -75 0
-27 -81 0
-27 -87 0
-27 -93 0
-33 -39 0
-33 -45 0
-33 -51 0
-33 -57 0
-33 -63 0
-33 -69 0
-33 -75 0
-33 -81 0
-33 -87 0
-33 -93 0
-39 -45 0
-39 -51 0
-39 -57 0
-39 -63 0
-39 -69 0
-39 -75 0
-39 -81 0
-39 -87 0
-39 -93 0
-45 -51 0
-45 -57 0
-45 -63 0
-45 -69 0
-45 -75 0
-45 -81 0
-45 -87 0
-45 -93 0
-51 -57 0
-51 -63 0
-51 -69 0
-51 -75 0
-51 -81 0
-51 -87 0
-51 -93 0
-57 -63 0
-57 -69 0
-57 -75 0
-57 -81 0
-57 -87 0
-57 -93 0
-63 -69 0
-63 -75 0
-63 -81 0
-63 -87 0
-63 -93 0
-69 -75 0
-69 -81 0
-69 -87 0
-69 -93 0
-75 -81 0
-75 -87 0
-75 -93 0
-81 -87 0
-81 -93 0
-87 -93 0
-4 -10 0
-4 -16 0
-4 -22 0
-4 -28 0
-4 -34 0
-4 -40 0
-4 -46 0
-4 -52 0
-4 -58 0
-4 -64 0
-4 -70 0
-4 -76 0
-4 -82 0
-4 -88 0
-4 -94 0
-10 -16 0
-10 -22 0
-10 -28 0
-10 -34 0
-10 -40 0
-10 -46 0
-10 -52 0
-10 -58 0
-10 -64 0
-10 -70 0
-10 -76 0
-10 -82 0
-10 -88 0
-10 -94 0
-16 -22 0
-16 -28 0
-16 -34 0
-16 -40 0
-16 -46 0
-16 -52 0
-16 -58 0
-16 -64 0
-16 -70 0
-16 -76 0
-16 -82 0
-16 -88 0
-16 -94 0
-22 -28 0
-22 -34 0
-22 -40 0
-22 -46 0
-22 -52 0
-22 -58 0
-22 -64 0
-22 -70 0
-22 -76 0
-22 -82 0
-22 -88 0
-22 -94 0
-28 -34 0
-28 -40 0
-28 -46 0
-28 -52 0
-28 -58 0
-28 -64 0
-28 -70 0
-28 -76 0
-28 -82 0
-28 -88 0
-28 -94 0
-34 -40 0
-34 -46 0
-34 -52 0
-34 -58 0
-34 -64 0
-34 -70 0
-34 -76 0
-34 -82 0
-34 -88 0
-34 -94 0
-40 -46 0
-40 -52 0
-40 -58 0
-40 -64 0
-40 -70 0
-40 -76 0
-40 -82 0
-40 -88 0
-40 -94 0
-46 -52 0
-46 -58 0
-46 -64 0
-46 -70 0
-46 -76 0
-46 -82 0
-46 -88 0
-46 -94 0
-52 -58 0
-52 -64 0
-52 -70 0
-52 -76 0
-52 -82 0
-52 -88 0
-52 -94 0
-58 -64 0
-58 -70 0
-58 -76 0
-58 -82 0
-58 -88 0
-58 -94 0
-64 -70 0
-64 -76 0
-64 -82 0
-64 -88 0
-64 -94 0
-70 -76 0
-70 -82 0
-70 -88 0
-70 -94 0
-76 -82 0
-76 -88 0
-76 -94 0
-82 -88 0
-82 -94 0
-88 -94 0
-5 -11 0
-5 -17 0
-5 -23 0
-5 -29 0
-5 -35 0
-5 -41 0
-5 -47 0
-5 -53 0
-5 -59 0
-5 -65 0
-5 -71 0
-5 -77 0
-5 -83 0
-5 -89 0
-5 -95 0
-11 -17 0
-11 -23 0
-11 -29 0
-11 -35 0
-11 -41 0
-11 -47 0
-11 -53 0
-11 -59 0
-11 -65 0
-11 -71 0
-11 -77 0
-11 -83 0
-11 -89 0
-11 -95 0
-17 -23 0
-17 -29 0
-17 -35 0
-17 -41 0
-17 -47 0
-17 -53 0
-17 -59 0
-17 -65 0
-17 -71 0
-17 -77 0
-17 -83 0
-17 -89 0
-17 -95 0
-23 -29 0
-23 -35 0
-23 -41 0
-23 -47 0
-23 -53 0
-23 -59 0
-23 -65 0
-23 -71 0
-23 -77 0
-23 -83 0
-23 -89 0
-23 -95 0
-29 -35 0
-29 -41 0
-29 -47 0
-29 -53 0
-29 -59 0
-29 -65 0
-29 -71 0
-29 -77 0
-29 -83 0
-29 -89 0
-29 -95 0
-35 -41 0
-35 -47 0
-35 -53 0
-35 -59 0
-35 -65 0
-35 -71 0
-35 -77 0
-35 -83 0
-35 -89 0
-35 -95 0
-41 -47 0
-41 -53 0
-41 -59 0
-41 -65 0
-41 -71 0
-41 -77 0
-41 -83 0
-41 -89 0
-41 -95 0
-47 -53 0
-47 -59 0
-47 -65 0
-47 -71 0
-47 -77 0
-47 -83 0
-47 -89 0
-47 -95 0
-53 -59 0
-53 -65 0
-53 -71 0
-53 -77 0
-53 -83 0
-53 -89 0
-53 -95 0
-59 -65 0
-59 -71 0
-59 -77 0
-59 -83 0
-59 -89 0
-59 -95 0
-65 -71 0
-65 -77 0
-65 -83 0
-65 -89 0
-65 -95 0
-71 -77 0
-71 -83 0
-71 -89 0
-71 -95 0
-77 -83 0
-77 -89 0
-77 -95 0
-83 -89 0
-83 -95 0
-89 -95 0
-6 -12 0
-6 -18 0
-6 -24 0
-6 -30 0
-6 -36 0
-6 -42 0
-6 -48 0
-6 -54 0
-6 -60 0
-6 -66 0
-6 -72 0
-6 -78 0
-6 -84 0
-6 -90 0
-6 -96 0
-12 -18 0
-12 -24 0
-12 -30 0
-12 -36 0
-12 -42 0
-12 -48 0
-12 -54 0
-12 -60 0
-12 -66 0
-12 -72 0
-12 -78 0
-12 -84 0
-12 -90 0
-12 -96 0
-18 -24 0
-18 -30 0
-18 -36 0
-18 -42 0
-18 -48 0
-18 -54 0
-18 -60 0
-18 -66 0
-18 -72 0
-18 -78 0
-18 -84 0
-18 -90 0
-18 -96 0
-24 -30 0
-24 -36 0
-24 -42 0
-24 -48 0
-24 -54 0
-24 -60 0
-24 -66 0
-24 -72 0
-24 -78 0
-24 -84 0
-24 -90 0
-24 -96 0
-30 -36 0
-30 -42 0
-30 -48 0
-30 -54 0
-30 -60 0
-30 -66 0
-30 -72 0
-30 -78 0
-30 -84 0
-30 -90 0
-30 -96 0
-36 -42 0
-36 -48 0
-36 -54 0
-36 -60 0
-36 -66 0
-36 -72 0
-36 -78 0
-36 -84 0
-36 -90 0
-36 -96 0
-42 -48 0
-42 -54 0
-42 -60 0
-42 -66 0
-42 -72 0
-42 -78 0
-42 -84 0
-42 -90 0
-42 -96 0
-48 -54 0
-48 -60 0
-48 -66 0
-48 -72 0
-48 -78 0
-48 -84 0
-48 -90 0
-48 -96 0
-54 -60 0
-54 -66 0
-54 -72 0
-54 -78 0
-54 -84 0
-54 -90 0
-54 -96 0
-60 -66 0
-60 -72 0
-60 -78 0
-60 -84 0
-60 -90 0
-60 -96 0
-66 -72 0
-66 -78 0
-66 -84 0
-66 -90 0
-66 -96 0
-72 -78 0
-72 -84 0
-72 -90 0
-72 -96 0
-78 -84 0
-78 -90 0
-78 -96 0
-84 -90 0
-84 -96 0
-90 -96 0
